c description: There is a graph of 8 vertices with a 3-clique and a 7-coloring
c generator: CNFgen (0.9.0)
c copyright: (C) 2012-2020 Massimo Lauria <massimo.lauria@uniroma1.it>
c url: https://massimolauria.net/cnfgen
c
p cnf 108 651
-29 -30 0
-29 -31 0
-29 -32 0
-29 -33 0
-29 -34 0
-29 -35 0
-29 -36 0
-30 -31 0
-30 -32 0
-30 -33 0
-30 -34 0
-30 -35 0
-30 -36 0
-31 -32 0
-31 -33 0
-31 -34 0
-31 -35 0
-31 -36 0
-32 -33 0
-32 -34 0
-32 -35 0
-32 -36 0
-33 -34 0
-33 -35 0
-33 -36 0
-34 -35 0
-34 -36 0
-35 -36 0
29 30 31 32 33 34 35 36 0
-37 -38 0
-37 -39 0
-37 -40 0
-37 -41 0
-37 -42 0
-37 -43 0
-37 -44 0
-38 -39 0
-38 -40 0
-38 -41 0
-38 -42 0
-38 -43 0
-38 -44 0
-39 -40 0
-39 -41 0
-39 -42 0
-39 -43 0
-39 -44 0
-40 -41 0
-40 -42 0
-40 -43 0
-40 -44 0
-41 -42 0
-41 -43 0
-41 -44 0
-42 -43 0
-42 -44 0
-43 -44 0
37 38 39 40 41 42 43 44 0
-45 -46 0
-45 -47 0
-45 -48 0
-45 -49 0
-45 -50 0
-45 -51 0
-45 -52 0
-46 -47 0
-46 -48 0
-46 -49 0
-46 -50 0
-46 -51 0
-46 -52 0
-47 -48 0
-47 -49 0
-47 -50 0
-47 -51 0
-47 -52 0
-48 -49 0
-48 -50 0
-48 -51 0
-48 -52 0
-49 -50 0
-49 -51 0
-49 -52 0
-50 -51 0
-50 -52 0
-51 -52 0
45 46 47 48 49 50 51 52 0
-29 -37 0
-29 -45 0
-37 -45 0
-30 -38 0
-30 -46 0
-38 -46 0
-31 -39 0
-31 -47 0
-39 -47 0
-32 -40 0
-32 -48 0
-40 -48 0
-33 -41 0
-33 -49 0
-41 -49 0
-34 -42 0
-34 -50 0
-42 -50 0
-35 -43 0
-35 -51 0
-43 -51 0
-36 -44 0
-36 -52 0
-44 -52 0
1 -29 -38 0
1 -29 -46 0
1 -37 -30 0
1 -37 -46 0
1 -45 -30 0
1 -45 -38 0
2 -29 -39 0
2 -29 -47 0
2 -37 -31 0
2 -37 -47 0
2 -45 -31 0
2 -45 -39 0
3 -29 -40 0
3 -29 -48 0
3 -37 -32 0
3 -37 -48 0
3 -45 -32 0
3 -45 -40 0
4 -29 -41 0
4 -29 -49 0
4 -37 -33 0
4 -37 -49 0
4 -45 -33 0
4 -45 -41 0
5 -29 -42 0
5 -29 -50 0
5 -37 -34 0
5 -37 -50 0
5 -45 -34 0
5 -45 -42 0
6 -29 -43 0
6 -29 -51 0
6 -37 -35 0
6 -37 -51 0
6 -45 -35 0
6 -45 -43 0
7 -29 -44 0
7 -29 -52 0
7 -37 -36 0
7 -37 -52 0
7 -45 -36 0
7 -45 -44 0
8 -30 -39 0
8 -30 -47 0
8 -38 -31 0
8 -38 -47 0
8 -46 -31 0
8 -46 -39 0
9 -30 -40 0
9 -30 -48 0
9 -38 -32 0
9 -38 -48 0
9 -46 -32 0
9 -46 -40 0
10 -30 -41 0
10 -30 -49 0
10 -38 -33 0
10 -38 -49 0
10 -46 -33 0
10 -46 -41 0
11 -30 -42 0
11 -30 -50 0
11 -38 -34 0
11 -38 -50 0
11 -46 -34 0
11 -46 -42 0
12 -30 -43 0
12 -30 -51 0
12 -38 -35 0
12 -38 -51 0
12 -46 -35 0
12 -46 -43 0
13 -30 -44 0
13 -30 -52 0
13 -38 -36 0
13 -38 -52 0
13 -46 -36 0
13 -46 -44 0
14 -31 -40 0
14 -31 -48 0
14 -39 -32 0
14 -39 -48 0
14 -47 -32 0
14 -47 -40 0
15 -31 -41 0
15 -31 -49 0
15 -39 -33 0
15 -39 -49 0
15 -47 -33 0
15 -47 -41 0
16 -31 -42 0
16 -31 -50 0
16 -39 -34 0
16 -39 -50 0
16 -47 -34 0
16 -47 -42 0
17 -31 -43 0
17 -31 -51 0
17 -39 -35 0
17 -39 -51 0
17 -47 -35 0
17 -47 -43 0
18 -31 -44 0
18 -31 -52 0
18 -39 -36 0
18 -39 -52 0
18 -47 -36 0
18 -47 -44 0
19 -32 -41 0
19 -32 -49 0
19 -40 -33 0
19 -40 -49 0
19 -48 -33 0
19 -48 -41 0
20 -32 -42 0
20 -32 -50 0
20 -40 -34 0
20 -40 -50 0
20 -48 -34 0
20 -48 -42 0
21 -32 -43 0
21 -32 -51 0
21 -40 -35 0
21 -40 -51 0
21 -48 -35 0
21 -48 -43 0
22 -32 -44 0
22 -32 -52 0
22 -40 -36 0
22 -40 -52 0
22 -48 -36 0
22 -48 -44 0
23 -33 -42 0
23 -33 -50 0
23 -41 -34 0
23 -41 -50 0
23 -49 -34 0
23 -49 -42 0
24 -33 -43 0
24 -33 -51 0
24 -41 -35 0
24 -41 -51 0
24 -49 -35 0
24 -49 -43 0
25 -33 -44 0
25 -33 -52 0
25 -41 -36 0
25 -41 -52 0
25 -49 -36 0
25 -49 -44 0
26 -34 -43 0
26 -34 -51 0
26 -42 -35 0
26 -42 -51 0
26 -50 -35 0
26 -50 -43 0
27 -34 -44 0
27 -34 -52 0
27 -42 -36 0
27 -42 -52 0
27 -50 -36 0
27 -50 -44 0
28 -35 -44 0
28 -35 -52 0
28 -43 -36 0
28 -43 -52 0
28 -51 -36 0
28 -51 -44 0
-53 -54 0
-53 -55 0
-53 -56 0
-53 -57 0
-53 -58 0
-53 -59 0
-54 -55 0
-54 -56 0
-54 -57 0
-54 -58 0
-54 -59 0
-55 -56 0
-55 -57 0
-55 -58 0
-55 -59 0
-56 -57 0
-56 -58 0
-56 -59 0
-57 -58 0
-57 -59 0
-58 -59 0
53 54 55 56 57 58 59 0
-60 -61 0
-60 -62 0
-60 -63 0
-60 -64 0
-60 -65 0
-60 -66 0
-61 -62 0
-61 -63 0
-61 -64 0
-61 -65 0
-61 -66 0
-62 -63 0
-62 -64 0
-62 -65 0
-62 -66 0
-63 -64 0
-63 -65 0
-63 -66 0
-64 -65 0
-64 -66 0
-65 -66 0
60 61 62 63 64 65 66 0
-67 -68 0
-67 -69 0
-67 -70 0
-67 -71 0
-67 -72 0
-67 -73 0
-68 -69 0
-68 -70 0
-68 -71 0
-68 -72 0
-68 -73 0
-69 -70 0
-69 -71 0
-69 -72 0
-69 -73 0
-70 -71 0
-70 -72 0
-70 -73 0
-71 -72 0
-71 -73 0
-72 -73 0
67 68 69 70 71 72 73 0
-74 -75 0
-74 -76 0
-74 -77 0
-74 -78 0
-74 -79 0
-74 -80 0
-75 -76 0
-75 -77 0
-75 -78 0
-75 -79 0
-75 -80 0
-76 -77 0
-76 -78 0
-76 -79 0
-76 -80 0
-77 -78 0
-77 -79 0
-77 -80 0
-78 -79 0
-78 -80 0
-79 -80 0
74 75 76 77 78 79 80 0
-81 -82 0
-81 -83 0
-81 -84 0
-81 -85 0
-81 -86 0
-81 -87 0
-82 -83 0
-82 -84 0
-82 -85 0
-82 -86 0
-82 -87 0
-83 -84 0
-83 -85 0
-83 -86 0
-83 -87 0
-84 -85 0
-84 -86 0
-84 -87 0
-85 -86 0
-85 -87 0
-86 -87 0
81 82 83 84 85 86 87 0
-88 -89 0
-88 -90 0
-88 -91 0
-88 -92 0
-88 -93 0
-88 -94 0
-89 -90 0
-89 -91 0
-89 -92 0
-89 -93 0
-89 -94 0
-90 -91 0
-90 -92 0
-90 -93 0
-90 -94 0
-91 -92 0
-91 -93 0
-91 -94 0
-92 -93 0
-92 -94 0
-93 -94 0
88 89 90 91 92 93 94 0
-95 -96 0
-95 -97 0
-95 -98 0
-95 -99 0
-95 -100 0
-95 -101 0
-96 -97 0
-96 -98 0
-96 -99 0
-96 -100 0
-96 -101 0
-97 -98 0
-97 -99 0
-97 -100 0
-97 -101 0
-98 -99 0
-98 -100 0
-98 -101 0
-99 -100 0
-99 -101 0
-100 -101 0
95 96 97 98 99 100 101 0
-102 -103 0
-102 -104 0
-102 -105 0
-102 -106 0
-102 -107 0
-102 -108 0
-103 -104 0
-103 -105 0
-103 -106 0
-103 -107 0
-103 -108 0
-104 -105 0
-104 -106 0
-104 -107 0
-104 -108 0
-105 -106 0
-105 -107 0
-105 -108 0
-106 -107 0
-106 -108 0
-107 -108 0
102 103 104 105 106 107 108 0
-1 -53 -60 0
-1 -54 -61 0
-1 -55 -62 0
-1 -56 -63 0
-1 -57 -64 0
-1 -58 -65 0
-1 -59 -66 0
-2 -53 -67 0
-2 -54 -68 0
-2 -55 -69 0
-2 -56 -70 0
-2 -57 -71 0
-2 -58 -72 0
-2 -59 -73 0
-3 -53 -74 0
-3 -54 -75 0
-3 -55 -76 0
-3 -56 -77 0
-3 -57 -78 0
-3 -58 -79 0
-3 -59 -80 0
-4 -53 -81 0
-4 -54 -82 0
-4 -55 -83 0
-4 -56 -84 0
-4 -57 -85 0
-4 -58 -86 0
-4 -59 -87 0
-5 -53 -88 0
-5 -54 -89 0
-5 -55 -90 0
-5 -56 -91 0
-5 -57 -92 0
-5 -58 -93 0
-5 -59 -94 0
-6 -53 -95 0
-6 -54 -96 0
-6 -55 -97 0
-6 -56 -98 0
-6 -57 -99 0
-6 -58 -100 0
-6 -59 -101 0
-7 -53 -102 0
-7 -54 -103 0
-7 -55 -104 0
-7 -56 -105 0
-7 -57 -106 0
-7 -58 -107 0
-7 -59 -108 0
-8 -60 -67 0
-8 -61 -68 0
-8 -62 -69 0
-8 -63 -70 0
-8 -64 -71 0
-8 -65 -72 0
-8 -66 -73 0
-9 -60 -74 0
-9 -61 -75 0
-9 -62 -76 0
-9 -63 -77 0
-9 -64 -78 0
-9 -65 -79 0
-9 -66 -80 0
-10 -60 -81 0
-10 -61 -82 0
-10 -62 -83 0
-10 -63 -84 0
-10 -64 -85 0
-10 -65 -86 0
-10 -66 -87 0
-11 -60 -88 0
-11 -61 -89 0
-11 -62 -90 0
-11 -63 -91 0
-11 -64 -92 0
-11 -65 -93 0
-11 -66 -94 0
-12 -60 -95 0
-12 -61 -96 0
-12 -62 -97 0
-12 -63 -98 0
-12 -64 -99 0
-12 -65 -100 0
-12 -66 -101 0
-13 -60 -102 0
-13 -61 -103 0
-13 -62 -104 0
-13 -63 -105 0
-13 -64 -106 0
-13 -65 -107 0
-13 -66 -108 0
-14 -67 -74 0
-14 -68 -75 0
-14 -69 -76 0
-14 -70 -77 0
-14 -71 -78 0
-14 -72 -79 0
-14 -73 -80 0
-15 -67 -81 0
-15 -68 -82 0
-15 -69 -83 0
-15 -70 -84 0
-15 -71 -85 0
-15 -72 -86 0
-15 -73 -87 0
-16 -67 -88 0
-16 -68 -89 0
-16 -69 -90 0
-16 -70 -91 0
-16 -71 -92 0
-16 -72 -93 0
-16 -73 -94 0
-17 -67 -95 0
-17 -68 -96 0
-17 -69 -97 0
-17 -70 -98 0
-17 -71 -99 0
-17 -72 -100 0
-17 -73 -101 0
-18 -67 -102 0
-18 -68 -103 0
-18 -69 -104 0
-18 -70 -105 0
-18 -71 -106 0
-18 -72 -107 0
-18 -73 -108 0
-19 -74 -81 0
-19 -75 -82 0
-19 -76 -83 0
-19 -77 -84 0
-19 -78 -85 0
-19 -79 -86 0
-19 -80 -87 0
-20 -74 -88 0
-20 -75 -89 0
-20 -76 -90 0
-20 -77 -91 0
-20 -78 -92 0
-20 -79 -93 0
-20 -80 -94 0
-21 -74 -95 0
-21 -75 -96 0
-21 -76 -97 0
-21 -77 -98 0
-21 -78 -99 0
-21 -79 -100 0
-21 -80 -101 0
-22 -74 -102 0
-22 -75 -103 0
-22 -76 -104 0
-22 -77 -105 0
-22 -78 -106 0
-22 -79 -107 0
-22 -80 -108 0
-23 -81 -88 0
-23 -82 -89 0
-23 -83 -90 0
-23 -84 -91 0
-23 -85 -92 0
-23 -86 -93 0
-23 -87 -94 0
-24 -81 -95 0
-24 -82 -96 0
-24 -83 -97 0
-24 -84 -98 0
-24 -85 -99 0
-24 -86 -100 0
-24 -87 -101 0
-25 -81 -102 0
-25 -82 -103 0
-25 -83 -104 0
-25 -84 -105 0
-25 -85 -106 0
-25 -86 -107 0
-25 -87 -108 0
-26 -88 -95 0
-26 -89 -96 0
-26 -90 -97 0
-26 -91 -98 0
-26 -92 -99 0
-26 -93 -100 0
-26 -94 -101 0
-27 -88 -102 0
-27 -89 -103 0
-27 -90 -104 0
-27 -91 -105 0
-27 -92 -106 0
-27 -93 -107 0
-27 -94 -108 0
-28 -95 -102 0
-28 -96 -103 0
-28 -97 -104 0
-28 -98 -105 0
-28 -99 -106 0
-28 -100 -107 0
-28 -101 -108 0